Te2 Pd1
1.0
   4.0700875400000003   -0.0000000000000000    0.0000000000000000
  -2.0350437700000001    3.5247999000000001   -0.0000000000000000
  -0.0000000000000000    0.0000000000000000    5.2330846099999997
Te Pd
2 1
direct
   0.3333330000000000    0.6666670000000000    0.2610909100000000 Te
   0.6666670000000000    0.3333330000000000    0.7389090900000000 Te
  -0.0000000000000000    0.0000000000000000   -0.0000000000000000 Pd
