Generated POSCAR
1.0
3.6031403700 0.0000000000 0.0000000000
0.0000000000 4.5231251300 0.0000000000
0.0000000000 0.0000000000 10.7807516100
Ge S
4 4
Cartesian
0.9007850925 0.6020731861 4.0131347868
0.9007850925 1.6594893789 9.4035105918
2.7023552775 2.8636357511 1.3772410182
2.7023552775 3.9210519439 6.7676168232
0.9007850925 2.3284595857 7.0595595768
0.9007850925 4.4562281093 1.6691837718
2.7023552775 0.0668970207 9.1115678382
2.7023552775 2.1946655443 3.7211920332
