Generated POSCAR
1.0
3.8674142700 0.0000000000 0.0000000000
1.9337071300 3.3492801900 0.0000000000
0.0000000000 0.0000000000 5.3618483100
Ni Te
1 2
Cartesian
0.0000000000 0.0000000000 0.0000000000
1.9336877963 1.1164155657 4.0647099668
3.8674336037 2.2328646243 1.2971383432
