Generated POSCAR
1.0
3.3794259774 0.0000000000 0.0000000000
1.6897129661 2.9266687597 0.0000000000
0.0000002636 -1.9511123630 9.6994575183
Hg S Ta
1 6 1
Cartesian
1.6897131205 -0.9755561815 4.8497287591
1.6896961234 0.9755465204 1.5346481685
1.6897299176 0.9755660315 1.5345511740
1.6897299176 0.9755465204 1.5346481685
3.3794092895 -0.0000096348 8.1649063443
3.3794430838 0.0000098764 8.1648093497
3.3794430838 -0.0000096348 8.1649063443
0.0000000000 0.0000000000 0.0000000000
