Generated POSCAR
1.0
4.6732243100 0.0000000000 0.0000000000
0.0000000000 8.8875334700 0.0000000000
0.0000000000 0.0000000000 6.9988017800
O S Te
14 2 4
Cartesian
0.0304694225 3.2248415196 6.6192567595
0.0304694225 5.6626919504 6.6192567595
0.4421804842 0.0000000000 1.1625009757
0.7498655728 4.4437667350 4.1232040927
1.0401662669 0.0000000000 5.7980173586
1.8007335234 2.3445313294 2.8609701916
1.8007335234 6.5430021406 2.8609701916
2.3670815775 1.2189252154 0.3795450205
2.3670815775 7.6686082546 0.3795450205
2.7787926392 4.4437667350 5.8363008043
3.0864777278 0.0000000000 2.8755976873
3.3767784219 4.4437667350 1.2007844214
4.1373456784 2.0992354056 4.1378315884
4.1373456784 6.7882980644 4.1378315884
1.5272564368 0.0000000000 0.1693010151
3.8638685918 4.4437667350 6.8295007649
1.1695678481 2.6709704337 4.7444877267
1.1695678481 6.2165630363 4.7444877267
3.5061800031 1.7727963013 2.2543140533
3.5061800031 7.1147371687 2.2543140533
