Generated POSCAR
1.0
6.5555760000 0.0000000000 0.0000000000
0.0000000000 11.6290750000 0.0000000000
-2.3991950000 0.0000000000 12.2897630000
Cl Cu P Se
6 4 17 12
Cartesian
-1.6516504513 7.8227624617 11.9602744540
-1.6516504513 7.8228787525 11.9602744540
2.5302434513 2.0082249617 0.3294885460
2.5302434513 2.0083412525 0.3294885460
1.6261375487 9.6207337475 11.9602744540
5.8080314513 3.8061962475 0.3294885460
1.5287550897 4.1526263917 0.1998315464
-0.6501620897 9.9671638917 12.0899314536
4.8065430897 1.6619111082 0.1998315464
2.6276259103 7.4764486082 12.0899314536
-1.5277720583 1.6515612315 9.5872441163
-1.5696500425 11.1391420702 10.3457682887
-1.5696500425 11.1392583610 10.3457682887
0.9834568673 10.8291109307 1.7549781564
0.0753778741 6.1946919617 7.2954491121
0.8032151259 0.3801544617 4.9943138879
-0.1047983115 5.0145734307 10.5347848436
2.4482430425 5.3246045702 1.9439947113
2.4063650583 7.4660987315 2.7025188837
1.7500159417 4.1629762685 9.5872441163
1.7081379575 6.3043541390 10.3457682887
4.2612448673 6.6145015692 1.7549781564
3.3531658741 11.2489205382 7.2954491121
4.0810031259 5.4343830382 4.9943138879
3.1729896885 0.7999640692 10.5347848436
5.7260310425 0.4898166390 1.9439947113
5.6841530583 9.9775137685 2.7025188837
-1.4787380116 5.5998647755 8.8394120377
-0.4735962257 1.7899472240 3.7534165178
-0.5001375212 10.1324130475 4.9249996246
1.3787305212 4.3178755475 7.3647633754
1.3521892257 7.6044847240 8.5363464822
2.3573310116 11.4144022755 3.4503509623
1.7990499884 0.2145564337 8.8394120377
2.8041917743 4.0245902760 3.7534165178
2.7776504788 7.3111994525 4.9249996246
4.6565185212 1.4966619525 7.3647633754
4.6299772257 9.8391277760 8.5363464822
5.6351190116 6.0290939337 3.4503509623
