Generated POSCAR
1.0
4.6732243100 0.0000000000 0.0000000000
0.0000000000 8.8875334700 0.0000000000
0.0000000000 0.0000000000 6.9988017800
O S Te
14 2 4
Direct
0.0065200000 0.3628500000 0.9457700000
0.0065200000 0.6371500000 0.9457700000
0.0946200000 0.0000000000 0.1661000000
0.1604600000 0.5000000000 0.5891300000
0.2225800000 0.0000000000 0.8284300000
0.3853300000 0.2638000000 0.4087800000
0.3853300000 0.7362000000 0.4087800000
0.5065200000 0.1371500000 0.0542300000
0.5065200000 0.8628500000 0.0542300000
0.5946200000 0.5000000000 0.8339000000
0.6604600000 0.0000000000 0.4108700000
0.7225800000 0.5000000000 0.1715700000
0.8853300000 0.2362000000 0.5912200000
0.8853300000 0.7638000000 0.5912200000
0.3268100000 0.0000000000 0.0241900000
0.8268100000 0.5000000000 0.9758100000
0.2502700000 0.3005300000 0.6779000000
0.2502700000 0.6994700000 0.6779000000
0.7502700000 0.1994700000 0.3221000000
0.7502700000 0.8005300000 0.3221000000
