Te2 Rh1
1.0
   3.9376402200000000    0.0000000000000000   -0.0000000000000000
  -1.9688201100000000    3.4100955800000001    0.0000000000000000
   0.0000000000000000   -0.0000000000000000    5.5125645499999996
Te Rh
2 1
direct
   0.3333330000000000    0.6666670000000000    0.2486761600000000 Te
   0.6666670000000000    0.3333330000000000    0.7513238400000000 Te
   0.0000000000000000   -0.0000000000000000   -0.0000000000000000 Rh
