Ta1 S2
1.0
   3.3098073499999998   -0.0000000100000000    0.4735088900000000
   1.6549026499999999    2.8957457600000001    0.2367549500000000
   0.0360356900000000    0.0000000300000000   11.5525441799999999
Ta S
1 2
direct
   0.0755745200000000    0.8488509700000000   -0.0000000000000000 Ta
   0.8100597500000000    0.5155745200000000    0.8643059800000000 S
   0.6743657300000000    0.5155745200000000    0.1356940200000000 S
