In2 I6 O18
1.0
   5.5562152800000000   -4.8772684999999996   -0.0563276800000000
   5.5562195399999998    4.8772637300000001   -0.0563343500000000
   1.3492063100000000    0.0000047800000000    7.2692569799999998
In I O
2 6 18
direct
   0.8219904500000000    0.8219904500000000    0.8219904500000000 In
   0.1780095500000000    0.1780095500000000    0.1780095500000000 In
   0.4148421900000000    0.7164922200000000    0.1279200300000000 I
   0.2835077800000000    0.8720799700000000    0.5851578100000000 I
   0.8720799700000000    0.5851578100000000    0.2835077800000000 I
   0.5851578100000000    0.2835077800000000    0.8720799700000000 I
   0.1279200300000000    0.4148421900000000    0.7164922200000000 I
   0.7164922200000000    0.1279200300000000    0.4148421900000000 I
   0.7856893500000000    0.2671460500000000    0.5735946800000000 O
   0.2671460500000000    0.5735946800000000    0.7856893500000000 O
   0.5735946800000000    0.7856893500000000    0.2671460500000000 O
   0.2143106500000000    0.7328539500000000    0.4264053200000000 O
   0.7328539500000000    0.4264053200000000    0.2143106500000000 O
   0.4264053200000000    0.2143106500000000    0.7328539500000000 O
   0.6987943800000000    0.9161016300000000    0.5713624600000000 O
   0.9161016300000000    0.5713624600000000    0.6987943800000000 O
   0.7062191700000000    0.0637271500000000    0.9482234300000000 O
   0.9482234300000000    0.7062191700000000    0.0637271500000000 O
   0.0637271500000000    0.9482234300000000    0.7062191700000000 O
   0.2937808300000000    0.9362728500000000    0.0517765700000000 O
   0.0517765700000000    0.2937808300000000    0.9362728500000000 O
   0.9362728500000000    0.0517765700000000    0.2937808300000000 O
   0.4286375400000000    0.3012056200000000    0.0838983700000000 O
   0.0838983700000000    0.4286375400000000    0.3012056200000000 O
   0.3012056200000000    0.0838983700000000    0.4286375400000000 O
   0.5713624600000000    0.6987943800000000    0.9161016300000000 O
