Ta1 Se2
1.0
   3.4387170399999998    0.0000000300000000    0.4837366000000000
   1.7193600700000000    3.0087792699999998    0.2418693200000000
   0.0258971900000000    0.0000000600000000   12.2800808600000000
Ta Se
1 2
direct
   0.0815090800000000    0.8369838400000000    0.0000000000000000 Ta
   0.8166645000000000    0.5035090800000001    0.8631619200000000 Se
   0.6798274200000000    0.5035090800000001    0.1368380800000000 Se
