Cu4 P8 H16 O16
1.0
   5.5219930000000002    0.0000000000000000    0.0000000000000000
   0.0000000000000000    6.4016590000000004    0.0000000000000000
   0.0000000000000000    0.0000000000000000   14.3711289999999998
Cu P H O
4 8 16 16
direct
   0.5000000000000000    0.0000000000000000    0.5000000000000000 Cu
   0.0000000000000000    0.5000000000000000    0.5000000000000000 Cu
   0.5000000000000000    0.5000000000000000    0.0000000000000000 Cu
   0.0000000000000000    0.0000000000000000    0.0000000000000000 Cu
   0.9453750000000000    0.1120490000000000    0.3715420000000000 P
   0.4453750000000000    0.3879510000000000    0.6284580000000000 P
   0.0546250000000000    0.6120490000000000    0.1284580000000000 P
   0.5546250000000000    0.8879510000000000    0.8715420000000000 P
   0.0546250000000000    0.8879510000000000    0.6284580000000000 P
   0.5546250000000000    0.6120490000000000    0.3715420000000000 P
   0.9453750000000000    0.3879510000000000    0.8715420000000000 P
   0.4453750000000000    0.1120490000000000    0.1284580000000000 P
   0.4289330000000000    0.4224960000000000    0.3569900000000000 H
   0.0710670000000000    0.9224960000000000    0.3569900000000000 H
   0.5710670000000000    0.5775040000000000    0.6430100000000000 H
   0.9289330000000000    0.4224960000000000    0.1430100000000000 H
   0.4289330000000000    0.0775040000000000    0.8569900000000000 H
   0.9289330000000000    0.0775040000000000    0.6430100000000000 H
   0.0710670000000000    0.5775040000000000    0.8569900000000000 H
   0.5710670000000000    0.9224960000000000    0.1430100000000000 H
   0.9666820000000000    0.2206730000000000    0.2861080000000000 H
   0.4666820000000000    0.2793270000000000    0.7138920000000000 H
   0.0333180000000000    0.7206730000000000    0.2138920000000000 H
   0.5333180000000000    0.7793270000000000    0.7861080000000000 H
   0.4666820000000000    0.2206730000000000    0.2138920000000000 H
   0.9666820000000000    0.2793270000000000    0.7861080000000000 H
   0.5333180000000000    0.7206730000000000    0.2861080000000000 H
   0.0333180000000000    0.7793270000000000    0.7138920000000000 H
   0.8258210000000000    0.9302170000000000    0.8843740000000000 O
   0.3258210000000000    0.5697830000000000    0.1156260000000000 O
   0.1741790000000000    0.4302170000000000    0.6156260000000000 O
   0.6741790000000000    0.0697830000000000    0.3843740000000000 O
   0.5878780000000000    0.2244160000000000    0.0514620000000000 O
   0.0878780000000000    0.2755840000000000    0.9485380000000000 O
   0.0878780000000000    0.2244160000000000    0.4485380000000000 O
   0.4121220000000000    0.7244159999999999    0.4485380000000000 O
   0.9121220000000000    0.7755840000000001    0.5514620000000000 O
   0.4121220000000000    0.7755840000000001    0.9485380000000000 O
   0.9121220000000000    0.7244159999999999    0.0514620000000000 O
   0.5878780000000000    0.2755840000000000    0.5514620000000000 O
   0.1741790000000000    0.0697830000000000    0.1156260000000000 O
   0.6741790000000000    0.4302170000000000    0.8843740000000000 O
   0.8258210000000000    0.5697830000000000    0.3843740000000000 O
   0.3258210000000000    0.9302170000000000    0.6156260000000000 O
