Mo2 S4
1.0
   3.1922380000000001    0.0000000000000000    0.0000000000000000
   1.5961190000000001    2.7645590000000002    0.0000000000000000
   0.0000000000000000    0.0000000000000000   13.3782940000000004
Mo S
2 4
direct
   0.3333340000000000    0.3333330000000000    0.7500000000000000 Mo
   0.6666660000000000    0.6666670000000000    0.2500000000000000 Mo
   0.3333340000000000    0.3333330000000000    0.1330820000000000 S
   0.6666660000000000    0.6666670000000000    0.8669140000000000 S
   0.3333340000000000    0.3333330000000000    0.3669180000000000 S
   0.6666660000000000    0.6666670000000000    0.6330860000000000 S
