P8 Pd8 S8
1.0
   5.6837443499999996    0.0000283200000000    0.0001402200000000
   0.0000281100000000    5.7080551599999998    0.0003327100000000
   0.0003296900000000    0.0008434000000000   13.8344133700000000
P Pd S
8 8 8
direct
   0.8688059800000000    0.7200557000000000    0.5792439000000000 P
   0.8688389700000000    0.7800030100000001    0.4209564200000000 P
   0.6311741100000000    0.2798815000000000    0.0790450400000000 P
   0.3688181500000000    0.7200307700000000    0.9207501800000000 P
   0.3688136200000000    0.7798791700000000    0.0790415500000000 P
   0.1311658700000000    0.2200528600000000    0.5792469900000000 P
   0.1311992100000000    0.2799993900000000    0.4209626200000000 P
   0.6311719099999999    0.2200319800000000    0.9207519500000000 P
   0.7529384800000000    0.1583586000000000    0.3906931700000000 Pd
   0.7529533300000000    0.3417115000000000    0.6095063400000000 Pd
   0.7470645500000000    0.6582234500000000    0.1093193500000000 Pd
   0.7470315900000000    0.8417180700000000    0.8904820500000000 Pd
   0.2470338800000000    0.8417161700000000    0.6095115900000000 Pd
   0.2471032200000000    0.6583627600000000    0.3906949400000000 Pd
   0.2529600800000000    0.3417142800000000    0.8904820900000000 Pd
   0.2529293100000000    0.1582250100000000    0.1093144500000000 Pd
   0.3631355800000000    0.4545517700000000    0.6488001500000000 S
   0.1368641300000000    0.5453747500000000    0.1486344100000000 S
   0.1368562500000000    0.9545618400000000    0.8511945000000000 S
   0.6368235300000000    0.9545511300000000    0.6487960000000000 S
   0.8631024600000000    0.0453757200000000    0.1486286200000000 S
   0.8631499000000000    0.4545639800000000    0.8511936300000000 S
   0.3631614500000000    0.0455309300000000    0.3513772800000000 S
   0.6369034600000000    0.5455256600000000    0.3513738000000000 S
