Zn4 P6 S18
1.0
   5.3410054300000001    9.2239458499999998    0.0152777600000000
  -5.3410054300000001    9.2239458499999998    0.0152777600000000
   0.0000000000000000    0.6274035500000000    6.7329354600000002
Zn P S
4 6 18
direct
   0.9521591700000001    0.2969534600000000    0.3319782800000000 Zn
   0.7030465400000000    0.0478408300000000    0.6680217200000000 Zn
   0.0478408300000000    0.7030465400000000    0.6680217200000000 Zn
   0.2969534600000000    0.9521591700000001    0.3319782800000000 Zn
   0.2785237700000000    0.2785237700000000    0.3825539400000000 P
   0.7214762300000001    0.7214762300000001    0.6174460600000000 P
   0.0238272700000000    0.0238272700000000    0.6457959700000000 P
   0.9761727300000000    0.9761727300000000    0.3542040300000000 P
   0.3731735500000000    0.3731735500000000    0.7001013100000000 P
   0.6268264500000000    0.6268264500000000    0.2998986900000000 P
   0.2585093500000000    0.2585093500000000    0.6981903400000000 S
   0.0712843100000000    0.0712843100000000    0.1667339000000000 S
   0.6073214700000000    0.6073214700000000    0.6149825600000000 S
   0.3926785300000000    0.3926785300000000    0.3850174400000000 S
   0.2395801200000000    0.9190021500000000    0.6658324400000000 S
   0.9287156900000000    0.9287156900000000    0.8332661000000000 S
   0.7604198800000000    0.0809978500000000    0.3341675600000000 S
   0.9190021500000000    0.2395801200000000    0.6658324400000000 S
   0.4097796500000000    0.0903347300000000    0.2579616400000000 S
   0.9096652700000000    0.5902203499999999    0.7420383600000000 S
   0.5902203499999999    0.9096652700000000    0.7420383600000000 S
   0.0903347300000000    0.4097796500000000    0.2579616400000000 S
   0.5624708700000000    0.2643082800000000    0.8287847600000000 S
   0.7356917200000000    0.4375291300000000    0.1712152400000000 S
   0.4375291300000000    0.7356917200000000    0.1712152400000000 S
   0.2643082800000000    0.5624708700000000    0.8287847600000000 S
   0.0809978500000000    0.7604198800000000    0.3341675600000000 S
   0.7414906500000000    0.7414906500000000    0.3018096600000000 S
