Se8 O20
1.0
   4.5790648300000001    0.0000000000000000   -0.1701695700000000
   0.0000000000000000    6.9738312999999996    0.0000000000000000
  -0.0372982700000000    0.0000000000000000   13.7228103699999995
Se O
8 20
direct
   0.3532288800000000    0.2393948800000000    0.6402594400000000 Se
   0.6467711200000000    0.7393948800000000    0.8597405600000000 Se
   0.6467711200000000    0.7606051200000000    0.3597405600000000 Se
   0.3532288800000000    0.2606051200000000    0.1402594400000000 Se
   0.5003970400000000    0.2863834700000000    0.8714559800000000 Se
   0.4996029600000000    0.7863834700000000    0.6285440200000000 Se
   0.4996029600000000    0.7136165300000000    0.1285440200000000 Se
   0.5003970400000000    0.2136165300000000    0.3714559800000000 Se
   0.7023323299999999    0.2469724600000000    0.6425215399999999 O
   0.2976676700000000    0.7469714600000000    0.8574784600000001 O
   0.2976676700000000    0.7530285400000000    0.3574784600000000 O
   0.7023323299999999    0.2530275400000000    0.1425215400000000 O
   0.2577571600000000    0.2786685500000000    0.7717713200000000 O
   0.7422428400000000    0.7786685500000000    0.7282286800000000 O
   0.7422428400000000    0.7213314500000000    0.2282286800000000 O
   0.2577571600000000    0.2213314500000000    0.2717713200000000 O
   0.2985040800000000    0.1641549800000000    0.4619843900000000 O
   0.7014959200000001    0.6641549800000000    0.0380156100000000 O
   0.7014959200000001    0.8358450200000000    0.5380156100000000 O
   0.2985040800000000    0.3358450200000000    0.9619843900000000 O
   0.7066754700000000    0.4012597300000000    0.3773814100000000 O
   0.2933245300000000    0.9012597300000000    0.1226185900000000 O
   0.2933245300000000    0.5987402700000000    0.6226185900000000 O
   0.7066754700000000    0.0987402700000000    0.8773814100000000 O
   0.7315284500000000    0.0264233300000000    0.3458818800000000 O
   0.2684715500000000    0.5264233300000000    0.1541181200000000 O
   0.2684715500000000    0.9735766700000000    0.6541181200000000 O
   0.7315284500000000    0.4735766700000000    0.8458818800000000 O
