Te2 Os1 Cl12
1.0
   6.6004735200000004    0.0662255100000000    0.2870822500000000
   2.9800097999999999    5.9937302600000004    2.3408834500000002
   0.1841001400000000   -0.0780899500000000   10.8688392599999997
Te Os Cl
2 1 12
direct
   0.2527441600000000    0.4975354500000000    0.7589364800000000 Te
   0.7472558400000000    0.5024645500000000    0.2410635200000000 Te
   0.0000000000000000    0.0000000000000000   -0.0000000000000000 Os
   0.9724520900000000    0.7258802500000000    0.5833422200000000 Cl
   0.0275479100000000    0.2741197500000000    0.4166577800000000 Cl
   0.4291010300000000    0.7328362300000000    0.6981979600000000 Cl
   0.6107950400000000    0.2148598100000000    0.9897624600000000 Cl
   0.3892049600000000    0.7851401900000000    0.0102375400000000 Cl
   0.9942158200000000    0.7678145000000000    0.2095875700000000 Cl
   0.0057841800000000    0.2321855000000000    0.7904124300000001 Cl
   0.9308610899999999    0.7764006000000000    0.9064896200000000 Cl
   0.0691389100000000    0.2235994000000000    0.0935103800000000 Cl
   0.5145636200000000    0.7351961299999999    0.3533851800000000 Cl
   0.4854363800000000    0.2648038700000000    0.6466148200000000 Cl
   0.5708989700000000    0.2671637700000000    0.3018020400000000 Cl
