Hg6 As4 F24
1.0
   8.5349354700000006    0.0000000000000000    0.0000000000000000
   0.0000000000000000    5.7105902700000000    0.0081135800000000
   0.0000000000000000    0.4560947800000000   11.2672544800000001
Hg As F
6 4 24
direct
   0.7423098700000000    0.7555982200000000    0.5694573000000001 Hg
   0.2423098700000000    0.2444017800000000    0.9305426999999999 Hg
   0.2576901300000000    0.2444017800000000    0.4305427000000000 Hg
   0.7576901300000000    0.7555982200000000    0.0694573000000000 Hg
   0.5000000000000000   -0.0000000000000000    0.5000000000000000 Hg
  -0.0000000000000000   -0.0000000000000000    0.0000000000000000 Hg
   0.1474858300000000    0.6962339000000000    0.6711398900000000 As
   0.6474858300000000    0.3037661000000000    0.8288601100000000 As
   0.8525141700000000    0.3037661000000000    0.3288601100000000 As
   0.3525141700000000    0.6962339000000000    0.1711398900000000 As
   0.9776798300000000    0.5475008600000000    0.6232160000000000 F
   0.4776798300000000    0.4524991400000000    0.8767840000000000 F
   0.0223201700000000    0.4524991400000000    0.3767840000000000 F
   0.5223201700000000    0.5475008600000000    0.1232160000000000 F
   0.2337992600000000    0.4234284600000000    0.7021537000000000 F
   0.7337992600000000    0.5765715400000000    0.7978463000000000 F
   0.7662007400000000    0.5765715400000000    0.2978463000000000 F
   0.2662007400000000    0.4234284600000000    0.2021537000000000 F
   0.0722927000000000    0.6919023399999999    0.8148522900000000 F
   0.5722927000000000    0.3080976600000000    0.6851477100000000 F
   0.1866010100000000    0.8438622700000000    0.2156125200000000 F
   0.6866010100000000    0.1561377300000000    0.2843874800000000 F
   0.8133989900000000    0.1561377300000000    0.7843874800000000 F
   0.3133989900000000    0.8438622700000000    0.7156125200000000 F
   0.2776860100000000    0.6886287400000000    0.0265568500000000 F
   0.7776860100000000    0.3113712600000000    0.4734431500000000 F
   0.7223139900000000    0.3113712600000000    0.9734431500000000 F
   0.2223139900000000    0.6886287400000000    0.5265568500000000 F
   0.4475316800000000    0.9589905800000000    0.1349216400000000 F
   0.9475316800000000    0.0410094200000000    0.3650783600000000 F
   0.5524683200000000    0.0410094200000000    0.8650783600000000 F
   0.0524683200000000    0.9589905800000000    0.6349216400000000 F
   0.4277073000000000    0.6919023399999999    0.3148522900000000 F
   0.9277073000000000    0.3080976600000000    0.1851477100000000 F
