Ag1 Sb2 F12
1.0
   5.1015759400000000   -0.0414283700000000    0.0799383000000000
   2.1692236500000002    4.7951860200000000    1.2928943300000000
  -0.0125764000000000   -0.0252099800000000    8.5816660299999992
Ag Sb F
1 2 12
direct
   0.5000000000000000    0.5000000000000000    0.5000000000000000 Ag
   0.7352931300000000    0.0186784700000000    0.2282786500000000 Sb
   0.2647068700000000    0.9813215300000000    0.7717213500000000 Sb
   0.2057640700000000    0.7672602900000000    0.6297443500000000 F
   0.7942359300000000    0.2327387100000000    0.3702556500000000 F
   0.6551245900000000    0.7624943199999999    0.7726671100000000 F
   0.6792432600000000    0.7710530500000000    0.1280705800000000 F
   0.3207567400000000    0.2289469500000000    0.8719294200000000 F
   0.1329148900000000    0.7978608800000000    0.2798164700000000 F
   0.8670851100000000    0.2021391200000000    0.7201835300000000 F
   0.7011867100000000    0.7788286300000000    0.4342987900000000 F
   0.2988122900000000    0.2211713700000000    0.5657012100000000 F
   0.7992067200000000    0.2472161200000000    0.0477645100000000 F
   0.2007932800000000    0.7527838800000000    0.9522354900000000 F
   0.3448754100000000    0.2375056800000000    0.2273328900000000 F
