Sr8 Co4 Br8 O8
1.0
   4.2086569999999996   -3.9936759999999998   -0.0004570000000000
   7.7646990000000002    3.9685120000000000   15.5602309999999999
  -3.7907590000000000   -3.9936259999999999    1.8284890000000000
Sr Co Br O
8 4 8 8
direct
   0.2973880000000000    0.4052500000000000    0.7026530000000000 Sr
   0.7973560000000000    0.4052500000000000    0.2026210000000000 Sr
   0.5473890000000000    0.9052500000000000    0.9526530000000000 Sr
   0.0473590000000000    0.9052500000000000    0.4526220000000000 Sr
   0.4526130000000000    0.0947490000000000    0.0473460000000000 Sr
   0.9526410000000000    0.0947490000000000    0.5473789999999999 Sr
   0.7026440000000000    0.5947500000000000    0.2973780000000000 Sr
   0.2026120000000000    0.5947500000000000    0.7973490000000000 Sr
   0.4999970000000000    0.0000000000000000    0.4999980000000000 Co
   0.2500020000000000    0.5000010000000000    0.2500030000000000 Co
   0.9999990000000000    0.0000000000000000    0.9999990000000000 Co
   0.7500019999999999    0.5000010000000000    0.7500019999999999 Co
   0.4137720000000000    0.1725660000000000    0.5862380000000000 Br
   0.9137870000000000    0.1725640000000000    0.0862200000000000 Br
   0.6637810000000000    0.6725640000000001    0.8362140000000000 Br
   0.1637630000000000    0.6725660000000000    0.3362320000000000 Br
   0.3362320000000000    0.3274330000000000    0.1637630000000000 Br
   0.8362110000000000    0.3274360000000000    0.6637790000000000 Br
   0.5862340000000000    0.8274330000000000    0.4137680000000000 Br
   0.0862190000000000    0.8274359999999999    0.9137870000000000 Br
   0.2500010000000000    0.0000020000000000    0.2500020000000000 O
   0.7499990000000000    0.0000030000000000    0.7499990000000000 O
   0.5000010000000000    0.4999980000000000    0.5000010000000000 O
   0.0000020000000000    0.5000000000000000    0.0000030000000000 O
   0.7500100000000000    0.9999749999999999    0.2499860000000000 O
   0.2499870000000000    0.0000280000000000    0.7500120000000000 O
   0.9999870000000000    0.5000240000000000    0.5000130000000000 O
   0.5000140000000000    0.4999730000000000    0.9999860000000000 O
