Ge6 Sb4 O18
1.0
   3.5440986099999998   -6.1384789499999997    0.0000017200000000
   3.5440554299999998    6.1384795800000003   -0.0000024500000000
  -0.0000012600000000   -0.0000032900000000    9.6870806100000006
Ge Sb O
6 4 18
direct
   0.2092898700000000    0.9196755300000000    0.2499993300000000 Ge
   0.2896110900000000    0.2092861000000000    0.7499994800000001 Ge
   0.9196763400000000    0.7103891400000000    0.7500004400000000 Ge
   0.0803225200000000    0.2896098500000000    0.2500001200000000 Ge
   0.7907090500000000    0.0803228300000000    0.7500005800000000 Ge
   0.7103869600000000    0.7907146400000000    0.2500002400000000 Ge
   0.6666702000000000    0.3333380200000000    0.4858290300000000 Sb
   0.3333291000000000    0.6666610300000000    0.9858291000000000 Sb
   0.3333337400000000    0.6666629400000000    0.5141709800000001 Sb
   0.6666682600000000    0.3333374200000000    0.0141708700000000 Sb
   0.6646655900000000    0.0979974200000000    0.8996227800000000 O
   0.5666739700000000    0.6646678400000000    0.3996237600000000 O
   0.0979966100000000    0.4333302200000000    0.3996230200000000 O
   0.9020047700000000    0.5666706300000000    0.8996232800000000 O
   0.4333276000000000    0.3353336500000000    0.8996244000000000 O
   0.3353354800000000    0.9020021700000000    0.3996234900000000 O
   0.3353339700000000    0.9020026400000000    0.1003762800000000 O
   0.4333276600000000    0.3353322100000000    0.6003758800000000 O
   0.9020046000000000    0.5666697800000000    0.6003777200000000 O
   0.0979946300000000    0.4333296600000000    0.1003778200000000 O
   0.5666702200000000    0.6646659300000000    0.1003765200000000 O
   0.6646665100000000    0.0979966900000000    0.6003752700000000 O
   0.7359931000000000    0.8082905400000000    0.7500003400000000 O
   0.9277076200000000    0.7360007000000000    0.2499992600000000 O
   0.8082880300000000    0.0722970800000000    0.2499995300000000 O
   0.1917120700000000    0.9277063300000000    0.7500001600000000 O
   0.0722932100000000    0.2640004800000000    0.7500004800000000 O
   0.2640062400000000    0.1917085300000000    0.2499998200000000 O
