Pd4 S8
1.0
   5.4829708600000000   -0.0000000000000000    0.0000000000000000
  -0.0000000000000000    5.5653630700000001    0.0000000000000000
   0.0000000000000000    0.0000000000000000    7.8802186299999999
Pd S
4 8
direct
   0.5000000000000000    0.0000000000000000    0.5000000000000000 Pd
  -0.0000000000000000    0.5000000000000000    0.5000000000000000 Pd
   0.5000000000000000    0.5000000000000000   -0.0000000000000000 Pd
  -0.0000000000000000    0.0000000000000000   -0.0000000000000000 Pd
   0.6047714300000000    0.1104133500000000    0.0782960000000000 S
   0.1047714300000000    0.3895866500000000    0.9217040000000000 S
   0.3952285700000000    0.6104133500000000    0.4217040000000000 S
   0.8952285700000000    0.8895866500000000    0.5782960000000000 S
   0.1047714300000000    0.1104133500000000    0.4217040000000000 S
   0.6047714300000000    0.3895866500000000    0.5782960000000000 S
   0.8952285700000000    0.6104133500000000    0.0782960000000000 S
   0.3952285700000000    0.8895866500000000    0.9217040000000000 S
