Ti2 Br6
1.0
   5.8463878700000000    0.0039891900000000    2.8462878699999998
   2.1926561000000002    5.5465211800000001    2.9120706799999998
  -0.0840692700000000    0.0073738000000000    7.4151301299999997
Ti Br
2 6
direct
   0.3377916200000000    0.8248863900000000    0.9994358400000000 Ti
   0.6625729200000000    0.1747886200000000    0.0005038500000000 Ti
   0.2795291200000000    0.4230302800000000    0.2316601400000000 Br
   0.7208363800000001    0.5768688600000000    0.7680989700000000 Br
   0.5622226900000000    0.7789904400000000    0.2312932400000000 Br
   0.4374451100000000    0.2211952300000000    0.7689002400000000 Br
   0.0801833300000000    0.9327428300000000    0.7692358300000000 Br
   0.9194198400000000    0.0675013500000000    0.2308728900000000 Br
