Si8 P16
1.0
   3.4406777800000001    0.0000000000000000    0.0000000000000000
   0.0000000000000000   10.1946284699999996   -0.0000000000000000
   0.0000000000000000   -0.0000000000000000   14.9839660400000003
Si P
8 16
direct
   0.0000000000000000    0.5887681299999999    0.8399762000000000 Si
   0.0000000000000000    0.4112318700000000    0.1600238000000000 Si
  -0.0000000000000000    0.0887681300000000    0.6600238000000000 Si
  -0.0000000000000000    0.9112318700000001    0.3399762000000000 Si
   0.5000000000000000    0.8055194300000000    0.7321553200000001 Si
   0.5000000000000000    0.1944805700000000    0.2678446800000000 Si
   0.5000000000000000    0.3055194300000000    0.7678446799999999 Si
   0.5000000000000000    0.6944805700000000    0.2321553200000000 Si
   0.0000000000000000    0.6715581300000000    0.7005571000000000 P
   0.0000000000000000    0.3284428700000000    0.2994429000000000 P
  -0.0000000000000000    0.1715571300000000    0.7994429000000000 P
   0.0000000000000000    0.8284418700000000    0.2005571000000000 P
  -0.0000000000000000    0.7594757600000001    0.9372693300000000 P
  -0.0000000000000000    0.2405242400000000    0.0627306700000000 P
  -0.0000000000000000    0.2594757600000000    0.5627306700000000 P
  -0.0000000000000000    0.7405242399999999    0.4372693300000000 P
   0.5000000000000000    0.8744745300000000    0.8801785800000000 P
   0.5000000000000000    0.1255254700000000    0.1198214200000000 P
   0.5000000000000000    0.3744745300000000    0.6198214200000000 P
   0.5000000000000000    0.6255254700000000    0.3801785800000000 P
   0.5000000000000000    0.9591534000000000    0.6235381600000000 P
   0.5000000000000000    0.0408466000000000    0.3764618400000000 P
   0.5000000000000000    0.4591534000000000    0.8764618400000000 P
   0.5000000000000000    0.5408466000000000    0.1235381600000000 P
