Ti1 Se2
1.0
   3.5565664500000000   -0.0000000100000000    0.0000000000000000
  -1.7782837499999999    3.0800777099999999    0.0000000000000000
   0.0000000000000000    0.0000000000000000    6.3476258600000000
Ti Se
1 2
direct
  -0.0000000000000000   -0.0000000000000000   -0.0000000000000000 Ti
   0.3333330000000000    0.6666670000000000    0.2399278400000000 Se
   0.6666670000000000    0.3333330000000000    0.7600721600000000 Se
