V2 Cl6
1.0
   5.4907191099999997    0.0276034300000000    4.2512746000000003
   2.1070310800000001    5.0554042800000003    4.2655674799999996
   0.0608941400000000    0.0293093400000000    6.9419964299999997
V Cl
2 6
direct
   0.6664869600000000    0.6667711100000000    0.6668554500000000 V
   0.3335128100000000    0.3332298700000000    0.3331412500000000 V
   0.5742441700000001    0.2753757500000000    0.9251247000000000 Cl
   0.2753027100000000    0.9249899400000000    0.5746551000000000 Cl
   0.0743469200000000    0.4229625900000000    0.7258658400000000 Cl
   0.7246816000000000    0.0750271000000000    0.4253487700000000 Cl
   0.4257625700000000    0.7246124800000000    0.0748833900000000 Cl
   0.9256612600000000    0.5770321600000000    0.2741275000000000 Cl
