Nb6 Cl16
1.0
   6.8012638299999999   -0.0000767800000000    0.0001164500000000
  -3.4006998099999999    5.8901093099999997    0.0001018800000000
   0.0002305300000000    0.0004008400000000   12.7679296299999994
Nb Cl
6 16
direct
   0.5289217400000000    0.0578054200000000    0.2457612000000000 Nb
   0.9422442200000000    0.4711200900000000    0.2457579700000000 Nb
   0.5289287000000000    0.4711226900000000    0.2457632300000000 Nb
   0.4710717100000000    0.9421915800000000    0.7542388500000000 Nb
   0.4710802400000000    0.5288847900000000    0.7542375600000000 Nb
   0.0577581900000000    0.5288732200000000    0.7542425900000000 Nb
   0.6667393700000001    0.3333773000000000    0.1007815700000000 Cl
   0.3332730900000000    0.6666283200000001    0.8992080900000000 Cl
   0.3333233100000000    0.6666641300000000    0.3515365400000000 Cl
   0.6666715900000000    0.3333363100000000    0.6484634900000000 Cl
   0.6699417700000000    0.8350008100000000    0.1396830600000000 Cl
   0.1650584400000000    0.8349538300000000    0.1396922500000000 Cl
   0.1650663300000000    0.3301172300000000    0.1396913100000000 Cl
   0.8349066300000000    0.1650272900000000    0.8603115800000000 Cl
   0.3300707600000000    0.1650284700000000    0.8603145800000001 Cl
   0.8349440900000000    0.6698775500000000    0.8603086000000000 Cl
   0.3369279000000000    0.1684558600000000    0.3752418400000000 Cl
   0.8315458900000000    0.1684647400000000    0.3752343800000000 Cl
   0.8315717400000000    0.6630726200000000    0.3752387500000000 Cl
   0.1684440300000000    0.8315146100000000    0.6247642700000000 Cl
   0.6630575000000000    0.8315520800000000    0.6247594000000000 Cl
   0.1684507600000000    0.3369350500000000    0.6247658699999999 Cl
