Nd2 Br6
1.0
   4.1302417100000000    0.0000000000000000    0.0000000000000000
  -2.0651203400000000    6.5643608499999999    0.0000000000000000
   0.0000000000000000   -0.0000000000000000    9.2397373999999992
Nd Br
2 6
direct
   0.7423053900000000    0.4846117900000000    0.2500000000000000 Nd
   0.2576946100000000    0.5153882100000000    0.7500000000000000 Nd
   0.3517375200000000    0.7034760400000000    0.4340200000000000 Br
   0.6482624800000000    0.2965239600000000    0.5659800000000000 Br
   0.9144223600000000    0.8288447200000000    0.7500000000000000 Br
   0.0855776400000000    0.1711552800000000    0.2500000000000000 Br
   0.3517375200000000    0.7034760400000000    0.0659800000000000 Br
   0.6482624800000000    0.2965239600000000    0.9340200000000000 Br
