Mn1 Cl2
1.0
   3.5943780400000001    0.0439206900000000    5.3394928200000003
   1.6622103600000000    3.1872469500000000    5.3394928000000004
   0.0714514900000000    0.0439206800000000    6.4361974799999997
Mn Cl
1 2
direct
   0.0000000000000000   -0.0000000000000000    0.0000000000000000 Mn
   0.7427978000000000    0.7427978000000000    0.7427978000000000 Cl
   0.2572022000000000    0.2572022000000000    0.2572022000000000 Cl
