Bi2 Te4 Br8
1.0
   7.5144590000000004    0.0000000000000000    0.0000000000000000
  -0.6677600000000000    8.0162960000000005    0.0000000000000000
  -2.0678790000000000   -0.4299130000000000    9.1221519999999998
Bi Te Br
2 4 8
direct
   0.2874610000000000    0.0848130000000000    0.6128360000000000 Bi
   0.7125390000000000    0.9151870000000000    0.3871640000000000 Bi
   0.8840690000000000    0.5472820000000000    0.8019230000000001 Te
   0.1159310000000000    0.4527180000000000    0.1980770000000000 Te
   0.7817970000000000    0.3588690000000000    0.0115190000000000 Te
   0.2182030000000000    0.6411310000000000    0.9884810000000001 Te
   0.5423090000000000    0.5892620000000000    0.3111760000000000 Br
   0.4576910000000000    0.4107380000000000    0.6888240000000000 Br
   0.7910420000000000    0.9294480000000001    0.1186160000000000 Br
   0.2089580000000000    0.0705520000000000    0.8813839999999999 Br
   0.6179440000000000    0.9338160000000000    0.6972950000000000 Br
   0.3820560000000000    0.0661840000000000    0.3027050000000000 Br
   0.0529580000000000    0.7567940000000000    0.5402620000000000 Br
   0.9470420000000001    0.2432060000000000    0.4597380000000000 Br
