Cr2 Cl6
1.0
   5.9252908099999999   -0.0256266400000000   -0.9175646600000000
  -3.1468627599999999    5.0244703499999996   -0.8971358500000000
   0.0105781600000000    0.0080911500000000    6.2899430399999998
Cr Cl
2 6
direct
   0.1666941700000000    0.8332679600000000   -0.0000030900000000 Cr
   0.8332882000000000    0.1667139700000000    0.9999757200000000 Cr
   0.0739077800000000    0.4299099500000000    0.7775487900000000 Cl
   0.5703443000000000    0.9256745000000000    0.2223340300000000 Cl
   0.7863197500000000    0.7866495500000000    0.7765797400000000 Cl
   0.2136181900000000    0.2132780400000000    0.2234137700000000 Cl
   0.4296633400000000    0.0744260400000000    0.7776964300000000 Cl
   0.9261642800000000    0.5700800000000000    0.2224546100000000 Cl
