Hf2 Fe2 Cl12
1.0
   3.1362791900000002   -5.4431998899999998   -0.0089733300000000
   3.1362791900000002    5.4431998899999998   -0.0089733300000000
  -0.0436698500000000    0.0000000000000000   12.1612041899999994
Hf Fe Cl
2 2 12
direct
   0.3359651400000000    0.6640348600000000    0.2500000000000000 Hf
   0.6640396600000000    0.3359603400000000    0.7500000000000000 Hf
  -0.0000235000000000    0.0000235000000000    0.2500000000000000 Fe
   0.0000280000000000   -0.0000280000000000    0.7500000000000000 Fe
   0.6652218500000000    0.9769638500000000    0.1354531600000000 Cl
   0.0250595000000000    0.6892146900000000    0.1355819200000000 Cl
   0.3106308000000000    0.3384228900000000    0.1322779100000000 Cl
   0.0230361500000000    0.3347781500000000    0.3645468400000000 Cl
   0.3384220800000000    0.3106666900000000    0.6322956300000000 Cl
   0.6891832300000000    0.0250286700000000    0.6355853500000000 Cl
   0.9769835900000000    0.6652135700000000    0.6354536700000000 Cl
   0.6893333100000000    0.6615779200000000    0.8677043700000000 Cl
   0.9749713300000000    0.3108167700000000    0.8644146500000000 Cl
   0.3347864300000000    0.0230164100000000    0.8645463300000000 Cl
   0.6615771100000000    0.6893692000000000    0.3677220900000000 Cl
   0.3107853100000000    0.9749405000000000    0.3644180800000000 Cl
