Ca1 H2 O2
1.0
   3.5793342199999998   -0.0000000000000000    0.0000000000000000
  -1.7896676100000000    3.0997939300000001   -0.0000000000000000
   0.0000000000000000    0.0000000000000000    4.8214371500000004
Ca H O
1 2 2
direct
  -0.0000000000000000   -0.0000000000000000    0.0000000000000000 Ca
   0.6666670000000000    0.3333330000000000    0.5608461800000000 H
   0.3333330000000000    0.6666670000000000    0.4391538200000000 H
   0.6666670000000000    0.3333330000000000    0.7610839700000001 O
   0.3333330000000000    0.6666670000000000    0.2389160300000000 O
