Nb1 F4
1.0
  -2.0855929999999998    2.0855929999999998    4.3326659999999997
   2.0855929999999998   -2.0855929999999998    4.3326659999999997
   2.0855929999999998    2.0855929999999998   -4.3326659999999997
Nb F
1 4
direct
   0.0000000000000000    0.0000000000000000    0.0000000000000000 Nb
   0.7800140000000000    0.7800140000000000    0.0000000000000000 F
   0.5000000000000000    0.0000000000000000    0.5000000000000000 F
   0.0000000000000000    0.5000000000000000    0.5000000000000000 F
   0.2199860000000000    0.2199860000000000    0.0000000000000000 F
