V2 Re4 O18
1.0
   2.8477635299999999   -7.3081407499999997    0.0000000000000000
   2.8477635299999999    7.3081407499999997    0.0000000000000000
   0.0000000000000000    0.0000000000000000    8.8640137899999996
V Re O
2 4 18
direct
   0.8822018400000000    0.1177981600000000    0.7814633400000000 V
   0.1177981600000000    0.8822018400000000    0.2814633400000000 V
   0.5229710300000000    0.4770289700000000    0.6876187499999999 Re
   0.4770289700000000    0.5229710300000000    0.1876187500000000 Re
   0.2266396800000000    0.7733603200000000    0.8716985500000000 Re
   0.7733603200000000    0.2266396800000000    0.3716985500000000 Re
   0.9355735500000000    0.0644264500000000    0.9375831500000000 O
   0.0644264500000000    0.9355735500000000    0.4375831500000000 O
   0.5807900000000000    0.4192100000000000    0.8562089400000000 O
   0.4192100000000000    0.5807900000000000    0.3562089400000000 O
   0.6009123200000001    0.3990876800000000    0.5416064400000000 O
   0.3990876800000000    0.6009123200000001    0.0416064400000000 O
   0.9686746100000000    0.5438692600000000    0.3263406700000000 O
   0.0313253900000000    0.4561307400000000    0.8263406700000000 O
   0.4561307400000000    0.0313253900000000    0.3263406700000000 O
   0.5438692600000000    0.9686746100000000    0.8263406700000000 O
   0.8061906700000000    0.1938093300000000    0.5598346199999999 O
   0.1938093300000000    0.8061906700000000    0.0598346200000000 O
   0.8697205300000000    0.1302794700000000    0.2620626600000000 O
   0.1302794700000000    0.8697205300000000    0.7620626600000000 O
   0.7985456399999999    0.7036668000000000    0.1761056000000000 O
   0.2014543600000000    0.2963332000000000    0.6761056000000000 O
   0.2963332000000000    0.2014543600000000    0.1761056000000000 O
   0.7036668000000000    0.7985456399999999    0.6761056000000000 O
