Pb6 S2 O12
1.0
   5.7930973500000000    0.0000000000000000    0.0000000000000000
   0.0000000000000000    7.1893488000000003   -0.0735606900000000
   0.0000000000000000    1.8911212500000001    7.8977268499999997
Pb S O
6 2 12
direct
   0.2500000000000000    0.7674208300000001    0.8453361400000000 Pb
   0.7500000000000000    0.2325791700000000    0.1546638600000000 Pb
   0.2500000000000000    0.3962077700000000    0.4159476300000000 Pb
   0.7500000000000000    0.6037922300000000    0.5840523700000000 Pb
   0.2500000000000000    0.9206795000000000    0.3742798400000000 Pb
   0.7500000000000000    0.0793205000000000    0.6257201600000000 Pb
   0.2500000000000000    0.2946896600000000    0.8582394200000000 S
   0.7500000000000000    0.7053103400000000    0.1417605800000000 S
   0.5000136200000000    0.8217413800000000    0.6205742900000000 O
   0.0000136200000000    0.1782586200000000    0.3794257100000000 O
   0.4999863800000000    0.1782586200000000    0.3794257100000000 O
  -0.0000136200000000    0.8217413800000000    0.6205742900000000 O
   0.2500000000000000    0.1797496300000000    0.7250302800000000 O
   0.7500000000000000    0.8202503700000000    0.2749697200000000 O
   0.2500000000000000    0.1651406300000000    0.0251327500000000 O
   0.7500000000000000    0.8348593700000000    0.9748672500000000 O
   0.5434477100000000    0.5798789200000000    0.1643968000000000 O
   0.0434477100000000    0.4201210800000000    0.8356032000000000 O
   0.4565522900000000    0.4201210800000000    0.8356032000000000 O
   0.9565522900000000    0.5798789200000000    0.1643968000000000 O
