Ta2 Ag1 F12
1.0
   5.0631266999999998   -0.0169772700000000    0.1540607700000000
   2.3981209799999998    4.7808827000000003    1.3094645300000001
   0.0544143500000000   -0.0379832900000000    8.9304563800000007
Ta Ag F
2 1 12
direct
   0.2281629700000000    0.5180878600000000    0.7216722900000000 Ta
   0.7718370300000000    0.4819121400000000    0.2783277100000000 Ta
  -0.0000000000000000    0.0000000000000000    0.0000000000000000 Ag
   0.1759711300000000    0.2581933300000000    0.2750652700000000 F
   0.8240288700000000    0.7418066700000000    0.7249347300000000 F
   0.8033253000000000    0.7303775800000000    0.0783134400000000 F
   0.2876505500000000    0.7434512500000000    0.5475398000000000 F
   0.7123494500000001    0.2565487500000000    0.4524602000000000 F
   0.1863682200000000    0.2742212600000000    0.6227551099999999 F
   0.8136317800000000    0.7257787400000000    0.3772448900000000 F
   0.6421992200000000    0.2974725200000000    0.7770933400000000 F
   0.3578007800000000    0.7025274800000000    0.2229066600000000 F
   0.2709689600000000    0.7343206100000000    0.8636506500000000 F
   0.7290310400000000    0.2656793900000000    0.1363493500000000 F
   0.1966747000000000    0.2696224200000000    0.9216865600000000 F
