La2 Te4 Se2
1.0
   4.2753207299999998    0.0000000000000000   -0.7229829100000000
   0.0000000000000000    4.3374232199999998    0.0000000000000000
   0.0427896700000000    0.0000000000000000   13.2554479799999996
La Te Se
2 4 2
direct
   0.1784544500000000    0.7500000000000000    0.3569089000000000 La
   0.8215450000000000    0.2500000000000000    0.6430909900000000 La
   0.5750599700000000    0.7500000000000000    0.1501189400000000 Te
   0.4249442500000000    0.2500000000000000    0.8498885100000000 Te
   0.0750213300000000    0.2500000000000000    0.1500426600000000 Te
   0.9249713800000000    0.7500000000000000    0.8499427600000000 Te
   0.7045231500000000    0.2500000000000000    0.4090453000000000 Se
   0.2954804600000000    0.7500000000000000    0.5909619300000000 Se
