Na8 As8 O16
1.0
   5.0552414399999996   -0.0000000000000000    0.0000000000000000
  -0.0000000000000000    6.7858528199999997    0.0000000000000000
   0.0000000000000000    0.0000000000000000   14.3777203700000005
Na As O
8 8 16
direct
   0.2479945200000000    0.1019413100000000    0.9456195800000000 Na
   0.7479945200000000    0.3980586900000000    0.9456195800000000 Na
   0.2520054800000000    0.1019413100000000    0.4456195800000000 Na
   0.7520054800000000    0.8980586900000000    0.0543804200000000 Na
   0.7520054800000000    0.3980586900000000    0.4456195800000000 Na
   0.2520054800000000    0.6019413100000000    0.0543804200000000 Na
   0.7479945200000000    0.8980586900000000    0.5543804200000000 Na
   0.2479945200000000    0.6019413100000000    0.5543804200000000 Na
   0.2690512800000000    0.6040182400000000    0.3292650500000000 As
   0.7690512800000000    0.3959817600000000    0.1707349500000000 As
   0.2309487200000000    0.1040182400000000    0.6707349500000001 As
   0.7309487200000000    0.8959817600000000    0.8292650499999999 As
   0.7309487200000000    0.3959817600000000    0.6707349500000001 As
   0.2309487200000000    0.6040182400000000    0.8292650499999999 As
   0.7690512800000000    0.8959817600000000    0.3292650500000000 As
   0.2690512800000000    0.1040182400000000    0.1707349500000000 As
   0.0770622500000000    0.3074032300000000    0.1187453500000000 O
   0.5770622500000000    0.6925967700000000    0.3812546500000000 O
   0.4229377500000000    0.8074032300000000    0.8812546500000000 O
   0.9229377500000000    0.1925967700000000    0.6187453500000000 O
   0.9229377500000000    0.6925967700000000    0.8812546500000000 O
   0.4229377500000000    0.3074032300000000    0.6187453500000000 O
   0.5770622500000000    0.1925967700000000    0.1187453500000000 O
   0.0770622500000000    0.8074032300000000    0.3812546500000000 O
   0.2134210100000000    0.9285539200000000    0.0882262200000000 O
   0.7134210100000000    0.0714460800000000    0.4117737800000000 O
   0.2865789900000000    0.4285539200000000    0.9117737800000000 O
   0.2134210100000000    0.4285539200000000    0.4117737800000000 O
   0.7865789900000000    0.0714460800000000    0.9117737800000000 O
   0.2865789900000000    0.9285539200000000    0.5882262200000000 O
   0.7134210100000000    0.5714460800000000    0.0882262200000000 O
   0.7865789900000000    0.5714460800000000    0.5882262200000000 O
