Ni4 Sb2 Te4
1.0
   3.9042612800000001   -0.0000000000000000   -0.0000000000000000
  -1.9521311500000000    3.3811892399999999    0.0000000000000000
   0.0000000000000000    0.0000000000000000   16.2748586899999985
Ni Sb Te
4 2 4
direct
  -0.0000000000000000   -0.0000000000000000    0.1689585500000000 Ni
  -0.0000000000000000    0.0000000000000000    0.6689585500000000 Ni
   0.0000000000000000    0.0000000000000000    0.8310414500000000 Ni
   0.0000000000000000   -0.0000000000000000    0.3310414500000000 Ni
   0.3333330000000000    0.6666670000000000    0.2500000000000000 Sb
   0.6666670000000000    0.3333330000000000    0.7500000000000000 Sb
   0.3333330000000000    0.6666670000000000    0.5946693400000000 Te
   0.6666670000000000    0.3333330000000000    0.0946693400000000 Te
   0.6666670000000000    0.3333330000000000    0.4053306600000000 Te
   0.3333330000000000    0.6666670000000000    0.9053306600000000 Te
