Ni1 Br2
1.0
   3.6573448300000000    0.0894316100000000    5.8147507200000002
   1.7438387300000000    3.2160832899999998    5.8147507100000002
   0.1461321500000000    0.0894316300000000    6.8677612699999999
Ni Br
1 2
direct
  -0.0000000000000000   -0.0000000000000000    0.0000000000000000 Ni
   0.2611077800000000    0.2611077800000000    0.2611077800000000 Br
   0.7388922200000000    0.7388922200000000    0.7388922200000000 Br
