Ag2 C8 N6
1.0
  -3.1205270000000001    4.0003789999999997    5.5324830000000000
   3.1205270000000001   -4.0003789999999997    5.5324830000000000
   3.1205270000000001    4.0003789999999997   -5.5324830000000000
Ag C N
2 8 6
direct
   0.8780730000000000    0.1482640000000000    0.7701910000000000 Ag
   0.1219270000000000    0.8921170000000000    0.2701910000000000 Ag
   0.4494730000000000    0.1564410000000000    0.9030730000000000 C
   0.2466320000000000    0.4536000000000000    0.4030730000000000 C
   0.2977000000000000    0.6379380000000000    0.8402380000000000 C
   0.7023000000000000    0.5425390000000000    0.3402380000000000 C
   0.7533680000000000    0.1564410000000000    0.2069680000000000 C
   0.5505270000000000    0.4536000000000000    0.7069680000000000 C
   0.3672580000000000    0.5195470000000000    0.6522880000000000 C
   0.6327420000000000    0.2850300000000000    0.1522880000000000 C
   0.1448180000000000    0.3993620000000000    0.1951870000000000 N
   0.7617210000000000    0.7572320000000000    0.4955110000000000 N
   0.2382790000000000    0.7337900000000001    0.9955110000000000 N
   0.8551820000000000    0.0503690000000000    0.2545440000000000 N
   0.2958250000000000    0.0503690000000000    0.6951870000000000 N
   0.7041750000000000    0.3993620000000000    0.7545440000000000 N
