Ta2 Te10 Pt2
1.0
   3.7723576400000001   -0.0000000200000000    0.0000000000000000
  -1.8861793600000001    7.0418518600000004   -0.0000000000000000
  -0.0000000000000000    0.0000000000000000   15.5483076600000008
Ta Te Pt
2 10 2
direct
   0.4924237900000000    0.9848465800000000    0.7500000000000000 Ta
   0.5075762100000000    0.0151534200000000    0.2500000000000000 Ta
   0.8406853900000000    0.6813717900000000    0.7500000000000000 Te
   0.1593146100000000    0.3186282100000000    0.2500000000000000 Te
   0.6031818900000000    0.2063647800000000    0.0810043900000000 Te
   0.3968181100000000    0.7936352200000000    0.9189956100000000 Te
   0.0981981000000000    0.1963982000000000    0.8524441600000000 Te
   0.9018019000000000    0.8036018000000000    0.1475558400000000 Te
   0.9018019000000000    0.8036018000000000    0.3524441600000000 Te
   0.0981981000000000    0.1963982000000000    0.6475558400000000 Te
   0.6031818900000000    0.2063647800000000    0.4189956100000000 Te
   0.3968181100000000    0.7936352200000000    0.5810043900000000 Te
  -0.0000000000000000   -0.0000000000000000   -0.0000000000000000 Pt
  -0.0000000000000000   -0.0000000000000000    0.5000000000000000 Pt
