Ba2 Cd1
1.0
   4.1393501300000004   -0.0000000100000000   -1.1199815700000000
  -0.3030335600000000    4.1282434200000004   -1.1199815600000000
   0.0257932600000000    0.0277565600000000    8.3046483900000005
Ba Cd
2 1
direct
   0.6305122100000000    0.6305122100000000    0.2610254200000000 Ba
   0.3694877900000000    0.3694877900000000    0.7389745800000000 Ba
  -0.0000000000000000   -0.0000000000000000   -0.0000000000000000 Cd
