I4 O12
1.0
   5.0651465399999998    0.0235947200000000   -0.5392383500000000
  -1.9019975700000000    6.3974728399999998   -0.8747692600000000
   0.0254992000000000   -0.0130659600000000    6.7714211700000000
I O
4 12
direct
   0.0020083000000000    0.1707381800000000    0.6708613500000000 I
   0.9979917000000000    0.8292618200000000    0.3291386500000000 I
   0.7985529400000000    0.6580857000000000    0.7791934200000000 I
   0.2014470600000000    0.3419143000000000    0.2208065800000000 I
   0.2184961600000000    0.9836788000000000    0.5831003100000000 O
   0.7815038399999999    0.0163212000000000    0.4168996900000000 O
   0.7995145000000000    0.9551964500000000    0.8006793100000000 O
   0.2004855000000000    0.0448035500000000    0.1993206900000000 O
   0.8507803600000000    0.3028319600000000    0.1494447100000000 O
   0.1492196400000000    0.6971680400000000    0.8505552900000000 O
   0.7919533900000000    0.6350108000000000    0.4819179600000000 O
   0.2080466100000000    0.3649892000000000    0.5180820400000000 O
   0.2576309700000000    0.2908399100000000    0.8912990900000000 O
   0.7423690300000000    0.7091600900000000    0.1087009100000000 O
   0.2515487100000000    0.6870005100000000    0.2974264000000000 O
   0.7484512900000000    0.3129994900000000    0.7025736000000000 O
