Cu4 S2 O8
1.0
   0.0000000000000000    5.4354760000000004    7.5067860000000000
   2.3029959999999998    0.0000000000000000    7.5067860000000000
   2.3029959999999998    5.4354760000000004    0.0000000000000000
Cu S O
4 2 8
direct
   0.4482880000000000    0.4482880000000000    0.0517120000000000 Cu
   0.0517120000000000    0.0517120000000000    0.4482880000000000 Cu
   0.8017120000000000    0.8017120000000000    0.1982880000000000 Cu
   0.1982880000000000    0.1982880000000000    0.8017120000000000 Cu
   0.7500000000000000    0.7500000000000000    0.7500000000000000 S
   0.5000000000000000    0.5000000000000000    0.5000000000000000 S
   0.7025730000000000    0.9156170000000000    0.9539780000000000 O
   0.4278320000000000    0.9539780000000000    0.9156170000000000 O
   0.9539780000000000    0.4278320000000000    0.7025730000000000 O
   0.9156170000000000    0.7025730000000000    0.4278320000000000 O
   0.5474270000000000    0.3343830000000000    0.2960220000000000 O
   0.8221680000000000    0.2960220000000000    0.3343830000000000 O
   0.3343830000000000    0.5474270000000000    0.8221680000000000 O
   0.2960220000000000    0.8221680000000000    0.5474270000000000 O
