Ta4 Ni2 S10
1.0
   3.4296001000000000   -0.0000000000000000    0.0000000000000000
  -1.7148005600000000    6.3351315300000000    0.0000000000000000
  -0.0000000000000000    0.0000000000000000   15.1622637499999993
Ta Ni S
4 2 10
direct
   0.2217604300000000    0.4435208600000000    0.6089735300000000 Ta
   0.7782395700000000    0.5564791400000000    0.3910264700000000 Ta
   0.7782395700000000    0.5564791400000000    0.1089735300000000 Ta
   0.2217604300000000    0.4435208600000000    0.8910264700000000 Ta
   0.3008406100000000    0.6016802100000000    0.2500000000000000 Ni
   0.6991593900000000    0.3983197900000000    0.7500000000000000 Ni
   0.6861552500000000    0.3723094900000000    0.2500000000000000 S
   0.3138447500000000    0.6276905100000000    0.7500000000000000 S
   0.1533035800000000    0.3066071600000000    0.4499221800000000 S
   0.8466964200000000    0.6933928400000000    0.5500778200000001 S
   0.8466964200000000    0.6933928400000000    0.9499221799999999 S
   0.1533035800000000    0.3066071600000000    0.0500778200000000 S
   0.5903829600000000    0.1807639200000000    0.8638669000000000 S
   0.4096170400000000    0.8192360800000000    0.1361331000000000 S
   0.4096170400000000    0.8192360800000000    0.3638669000000000 S
   0.5903829600000000    0.1807639200000000    0.6361331000000000 S
