Pt4 I8
1.0
   6.8014812500000001   -0.0308648200000000    0.0000000000000000
  -1.5825234500000001    6.8434644699999998    0.0000000000000000
   0.0000000000000000    0.0000000000000000    8.9174507199999997
Pt I
4 8
direct
   0.7715287400000000    0.5003192100000000    0.6299645300000000 Pt
   0.2284712600000000   -0.0003192100000000    0.1299645300000000 Pt
   0.2284712600000000    0.4996807900000000    0.3700354700000000 Pt
   0.7715287400000000    0.0003192100000000    0.8700354700000000 Pt
   0.5532543599999999    0.2581282600000000    0.8239569500000000 I
   0.4467456400000000    0.2418717400000000    0.3239569500000000 I
   0.4467456400000000    0.7418717400000000    0.1760440500000000 I
   0.5532543599999999    0.7581282600000000    0.6760430500000000 I
   0.0172149600000000    0.7742274099999999    0.9243268600000000 I
   0.9827850400000000    0.7257725900000001    0.4243268600000000 I
   0.9827850400000000    0.2257725900000000    0.0756731400000000 I
   0.0172149600000000    0.2742274100000000    0.5756731400000000 I
