Fe3 S4
1.0
  11.2814040000000002   -1.6622530000000000    0.0000000000000000
  11.2814040000000002    1.6622530000000000    0.0000000000000000
  11.0364799999999992    0.0000000000000000    2.8686699999999998
Fe S
3 4
direct
   0.5772830000000000    0.5772830000000000    0.5772830000000000 Fe
   0.4227170000000000    0.4227170000000000    0.4227170000000000 Fe
   0.5000000000000000    0.5000000000000000    0.5000000000000000 Fe
   0.8690480000000000    0.8690480000000000    0.8690480000000000 S
   0.1309520000000000    0.1309520000000000    0.1309520000000000 S
   0.7215050000000000    0.7215050000000000    0.7215050000000000 S
   0.2784950000000000    0.2784950000000000    0.2784950000000000 S
