Al4 Cd2 Cl16
1.0
   6.7118220300000004    0.0000000000000000    0.0000000000000000
   0.0000000000000000    7.0933056099999998    0.0146798600000000
   0.0000000000000000    0.5585358700000000   12.9672209699999996
Al Cd Cl
4 2 16
direct
   0.9261389900000000    0.4375481000000000    0.5419373500000000 Al
   0.4346177500000000    0.8520915300000000    0.2410352900000000 Al
   0.5653822500000000    0.8520915300000000    0.7410352900000000 Al
   0.0738610100000000    0.4375481000000000    0.0419373500000000 Al
   0.7423136000000000    0.9976027500000000    0.5018216200000000 Cd
   0.2576864000000000    0.9976027500000000    0.0018216200000000 Cd
   0.9232991500000000    0.4658064100000000    0.1809668900000000 Cl
   0.0767008500000000    0.4658064100000000    0.6809668900000000 Cl
   0.6206615400000000    0.3425457400000000    0.5603494500000000 Cl
   0.3793384600000000    0.3425457400000000    0.0603494500000000 Cl
   0.9327194599999999    0.6958942100000000    0.4441450500000000 Cl
   0.0672805400000000    0.6958942100000000    0.9441450500000000 Cl
   0.4266331900000000    0.8411812600000000    0.5890097300000000 Cl
   0.5733668100000000    0.8411812600000000    0.0890097300000000 Cl
   0.0549602200000000    0.2138428000000000    0.4529582900000000 Cl
   0.9450397800000000    0.2138428000000000    0.9529582900000000 Cl
   0.1364753000000000    0.9484589300000000    0.2005630100000000 Cl
   0.8635247000000000    0.9484589300000000    0.7005630100000000 Cl
   0.4382082800000000    0.5967147699999999    0.3267849500000000 Cl
   0.5617917200000000    0.5967147699999999    0.8267849500000000 Cl
   0.5838899300000000    0.0769145000000000    0.3194303700000000 Cl
   0.4161100700000000    0.0769145000000000    0.8194303700000000 Cl
