Zr12 C2 I28
1.0
   7.3704772800000002   -7.9714124399999999   -0.0000000000000000
   7.3704772800000002    7.9714124399999999   -0.0000000000000000
  -0.0000000000000000   -0.0000000000000000   13.0909503899999997
Zr C I
12 2 28
direct
   0.6299225899999999    0.6299225899999999    0.0938328300000000 Zr
   0.8700774100000001    0.8700774100000001    0.5938328300000000 Zr
   0.1299225900000000    0.1299225900000000    0.4061671700000000 Zr
   0.3700774100000000    0.3700774100000000    0.9061671700000000 Zr
   0.4555625700000000    0.6672328400000000    0.8916839000000000 Zr
   0.0444374300000000    0.8327671600000000    0.3916839000000000 Zr
   0.1672328400000000    0.9555625700000000    0.6083161000000000 Zr
   0.3327671600000000    0.5444374300000000    0.1083161000000000 Zr
   0.5444374300000000    0.3327671600000000    0.1083161000000000 Zr
   0.9555625700000000    0.1672328400000000    0.6083161000000000 Zr
   0.8327671600000000    0.0444374300000000    0.3916839000000000 Zr
   0.6672328400000000    0.4555625700000000    0.8916839000000000 Zr
   0.5000000000000000    0.5000000000000000    0.0000000000000000 C
   0.0000000000000000   -0.0000000000000000    0.5000000000000000 C
   0.1118816900000000    0.3605050700000000    0.5093492900000000 I
   0.3881183100000000    0.1394949300000000    0.0093492900000000 I
   0.1034573700000000    0.6034573700000000    0.2500000000000000 I
   0.3965426300000000    0.8965426300000000    0.7500000000000000 I
   0.8965426300000000    0.3965426300000000    0.7500000000000000 I
   0.6034573700000000    0.1034573700000000    0.2500000000000000 I
   0.1488866000000000    0.1488866000000000    0.7608646999999999 I
   0.3511134000000000    0.3511134000000000    0.2608647000000000 I
   0.6488866000000000    0.6488866000000000    0.7391353000000001 I
   0.8511134000000000    0.8511134000000000    0.2391353000000000 I
   0.7511720200000001    0.2488279800000000    0.0000000000000000 I
   0.7488279799999999    0.2511720200000000    0.5000000000000000 I
   0.2488279800000000    0.7511720200000001    0.0000000000000000 I
   0.2511720200000000    0.7488279799999999    0.5000000000000000 I
   0.6394949300000000    0.8881183100000000    0.4906507100000000 I
   0.8605050700000000    0.6118816900000000    0.9906507100000000 I
   0.6118816900000000    0.8605050700000000    0.9906507100000000 I
   0.8881183100000000    0.6394949300000000    0.4906507100000000 I
   0.3605050700000000    0.1118816900000000    0.5093492900000000 I
   0.1394949300000000    0.3881183100000000    0.0093492900000000 I
   0.2136902400000000    0.9669639200000000    0.2539591700000000 I
   0.2863097600000000    0.5330360800000000    0.7539591700000000 I
   0.4669639200000000    0.7136902400000000    0.2460408300000000 I
   0.0330360800000000    0.7863097600000000    0.7460408300000000 I
   0.7863097600000000    0.0330360800000000    0.7460408300000000 I
   0.7136902400000000    0.4669639200000000    0.2460408300000000 I
   0.5330360800000000    0.2863097600000000    0.7539591700000000 I
   0.9669639200000000    0.2136902400000000    0.2539591700000000 I
