Te4 Au4 I4
1.0
   7.3042648400000001   -0.0103988200000000    0.0000000000000000
  -2.0836483200000000    7.3569316200000001    0.0000000000000000
   0.0000000000000000    0.0000000000000000    7.8280007800000000
Te Au I
4 4 4
direct
   0.9855051800000000    0.6604151700000001    0.1382682200000000 Te
   0.5144948200000000    0.3395848300000000    0.6382682200000001 Te
   0.0144948200000000    0.3395848300000000    0.8617317799999999 Te
   0.4855051800000000    0.6604151700000001    0.3617317800000000 Te
   0.2316574100000000    0.4619412800000000    0.1349743600000000 Au
   0.2683425900000000    0.5380587200000000    0.6349743600000000 Au
   0.7683425900000000    0.5380587200000000    0.8650256400000000 Au
   0.7316574100000000    0.4619412800000000    0.3650256400000000 Au
   0.3885671600000000    0.1851855300000000    0.0798486600000000 I
   0.1114328400000000    0.8148144700000000    0.5798486600000000 I
   0.6114328400000000    0.8148144700000000    0.9201513400000000 I
   0.8885671600000000    0.1851855300000000    0.4201513400000000 I
