Mn2 Sb4 S8
1.0
   1.9147190000000001    6.3389080000000000    0.0000000000000000
  -1.9147190000000001    6.3389080000000000    0.0000000000000000
   0.0000000000000000    6.2325140000000001   14.1947960000000002
Mn Sb S
2 4 8
direct
   0.0000000000000000    0.0000000000000000    0.5000000000000000 Mn
   0.0000000000000000    0.0000000000000000    0.0000000000000000 Mn
   0.3540300000000000    0.3540300000000000    0.8733649999999999 Sb
   0.6459700000000000    0.6459700000000000    0.1266350000000000 Sb
   0.2315580000000000    0.2315580000000000    0.6241900000000000 Sb
   0.7684420000000000    0.7684420000000000    0.3758100000000000 Sb
   0.3865470000000000    0.3865470000000000    0.4605490000000000 S
   0.6134530000000000    0.6134530000000000    0.5394510000000000 S
   0.0058080000000000    0.0058080000000000    0.8367070000000000 S
   0.9941920000000000    0.9941920000000000    0.1632930000000000 S
   0.3452660000000000    0.3452660000000000    0.0373440000000000 S
   0.6547340000000000    0.6547340000000000    0.9626560000000000 S
   0.1581970000000000    0.1581970000000000    0.3333090000000000 S
   0.8418030000000000    0.8418030000000000    0.6666910000000000 S
