Nb2 C1 S2
1.0
   8.9443742200000003   -1.6527439200000000   -0.0694319300000000
   8.9443742200000003    1.6527439200000000   -0.0694319300000000
   8.6610920100000008    0.0000000000000000    2.7791541299999998
Nb C S
2 1 2
direct
   0.6217100300000000    0.6217100300000000    0.6217100300000000 Nb
   0.3782899700000000    0.3782899700000000    0.3782899700000000 Nb
   0.0000000000000000    0.0000000000000000    0.0000000000000000 C
   0.7723237800000000    0.7723237800000000    0.7723237800000000 S
   0.2276762200000000    0.2276762200000000    0.2276762200000000 S
