Ge1 Bi4 Te7
1.0
   4.3830279399999998   -0.0000000000000000   -0.0000000000000000
  -2.1915144799999999    3.7958141500000000    0.0000000000000000
  -0.0000000000000000   -0.0000000000000000   24.9139748999999995
Ge Bi Te
1 4 7
direct
  -0.0000000000000000   -0.0000000000000000    0.0000000000000000 Ge
   0.3333330000000000    0.6666670000000000    0.8495443200000000 Bi
   0.6666670000000000    0.3333330000000000    0.4173327100000000 Bi
   0.3333330000000000    0.6666670000000000    0.5826672899999999 Bi
   0.6666670000000000    0.3333330000000000    0.1504556800000000 Bi
   0.6666670000000000    0.3333330000000000    0.9335454800000000 Te
  -0.0000000000000000   -0.0000000000000000    0.5000000000000000 Te
   0.0000000000000000    0.0000000000000000    0.7801231600000000 Te
  -0.0000000000000000   -0.0000000000000000    0.2198768400000000 Te
   0.3333330000000000    0.6666670000000000    0.0664545200000000 Te
   0.3333330000000000    0.6666670000000000    0.3479828400000000 Te
   0.6666670000000000    0.3333330000000000    0.6520171600000000 Te
