V1 Se2
1.0
   3.4263086999999999    0.0000000000000000    0.0000000000000000
  -1.7131543499999999    2.9672715799999998   -0.0000000000000000
   0.0000000000000000    0.0000000000000000    6.3497077700000002
V Se
1 2
direct
   0.0000000000000000   -0.0000000000000000    0.0000000000000000 V
   0.6666670000000000    0.3333330000000000    0.7587290600000000 Se
   0.3333330000000000    0.6666670000000000    0.2412709400000000 Se
