Ti1 Br2
1.0
   3.8813824499999998    0.0000000000000000    0.0000000000000000
  -1.9406912300000001    3.3613751000000001    0.0000000000000000
   0.0000000000000000    0.0000000000000000    6.4235306500000000
Ti Br
1 2
direct
  -0.0000000000000000   -0.0000000000000000    0.0000000000000000 Ti
   0.3333330000000000    0.6666670000000000    0.2348802500000000 Br
   0.6666670000000000    0.3333330000000000    0.7651197500000000 Br
