Ag1 Te6 Mo6
1.0
   4.5864028299999999   -0.0000000000000000   -0.0000000000000000
  -2.2932014100000000    8.0153196599999994   -4.2997348000000004
  -0.0000000000000000   -0.4045967000000000    9.5357474199999999
Ag Te Mo
1 6 6
direct
  -0.0000000000000000   -0.0000000000000000    0.0000000000000000 Ag
   0.1194491300000000    0.2388982600000000    0.6354922300000000 Te
   0.5426258900000001    0.0852507800000000    0.2517416800000000 Te
   0.4573741100000000    0.9147492200000000    0.7482583200000000 Te
   0.8207727700000000    0.6415455300000000    0.8936306500000000 Te
   0.1792272300000000    0.3584544700000000    0.1063693500000000 Te
   0.8805508700000000    0.7611017400000000    0.3645077700000000 Te
   0.7150306500000000    0.4300623000000000    0.3169012800000000 Mo
   0.2849693500000000    0.5699377000000000    0.6830987200000000 Mo
   0.8457776000000000    0.6915551900000000    0.6203698300000000 Mo
   0.1542224000000000    0.3084448100000000    0.3796301700000000 Mo
   0.6880430900000000    0.3760871900000000    0.5641574700000000 Mo
   0.3119569100000000    0.6239128100000000    0.4358425300000000 Mo
